c FILE: i080-201

c SOURCE: From steinlib

c DESCRIPTION: Steinlib instance with 80 nodes and 120 edges.

p edge 80 120
e 1 29
e 1 32
e 1 33
e 1 35
e 1 77
e 2 16
e 3 11
e 4 6
e 4 19
e 4 54
e 5 28
e 5 43
e 5 69
e 5 77
e 7 10
e 7 34
e 8 62
e 9 67
e 9 71
e 11 18
e 11 20
e 11 44
e 11 51
e 11 53
e 11 64
e 11 77
e 12 48
e 13 45
e 13 80
e 14 16
e 14 56
e 15 47
e 15 51
e 16 20
e 16 34
e 16 43
e 16 48
e 17 34
e 18 29
e 18 35
e 19 38
e 19 57
e 19 72
e 19 77
e 20 35
e 20 39
e 21 33
e 22 34
e 22 71
e 23 55
e 24 36
e 24 53
e 25 51
e 25 79
e 26 65
e 26 77
e 26 79
e 27 35
e 27 58
e 27 68
e 29 67
e 30 39
e 30 48
e 31 45
e 31 57
e 31 65
e 31 66
e 32 67
e 34 58
e 34 60
e 34 76
e 35 51
e 36 72
e 37 49
e 37 62
e 38 40
e 38 41
e 38 43
e 38 65
e 39 45
e 39 56
e 41 47
e 41 71
e 42 77
e 43 55
e 43 56
e 43 61
e 44 67
e 44 70
e 44 72
e 45 51
e 45 53
e 45 70
e 46 58
e 47 67
e 48 53
e 49 76
e 50 62
e 50 71
e 52 60
e 52 74
e 52 79
e 53 57
e 53 63
e 54 73
e 58 65
e 58 74
e 59 76
e 60 73
e 60 78
e 61 72
e 63 66
e 65 80
e 66 68
e 66 78
e 67 74
e 67 77
e 71 77
e 71 78
e 75 76
